nodesNumber = 30;
minColorsNumber = 3;
maxClique = [1, 2, 3];

edges = array2d(1..30, 1..30, [
  false, true, false, true, false, true, false, false, false, false, false, true, false, false, false, false, false, false, false, false, false, false, false, false, true, false, false, false, false, false, true, false, false, false, true, true, false, true, true, false, false, true, false, true, false, false, true, true, false, false, false, false, false, true, false, false, true, false, false, false, false, false, false, false, false, false, true, false, false, false, false, false, true, false, false, true, false, false, false, true, false, false, false, false, true, false, true, false, false, false, true, false, false, false, false, true, false, true, false, false, true, false, false, true, false, true, false, false, false, false, false, false, true, false, false, false, false, false, true, false, false, true, false, false, false, true, true, true, false, false, false, false, false, false, true, false, false, true, false, false, false, true, false, false, false, false, true, true, false, false, true, true, false, true, true, false, false, true, false, false, false, false, false, false, false, false, true, false, false, false, false, true, true, false, false, false, false, false, false, true, false, false, true, false, true, false, false, false, true, false, true, false, true, false, true, false, false, false, true, false, false, false, false, false, true, false, false, false, true, false, false, true, false, true, true, true, false, false, false, false, true, true, true, false, true, false, false, false, false, false, true, false, false, false, true, true, false, false, false, false, false, true, false, false, false, false, true, false, false, true, false, true, true, true, false, false, false, true, true, true, false, false, true, false, false, false, false, false, false, false, false, false, false, false, false, false, false, false, true, false, false, true, false, true, false, false, true, false, false, true, true, false, false, false, false, true, false, false, false, false, false, false, false, true, false, false, true, true, false, false, false, true, false, false, false, false, false, false, false, true, true, false, false, false, false, false, true, false, true, true, true, true, false, false, false, false, false, true, true, true, true, false, false, false, true, false, false, true, false, true, false, false, false, false, false, false, false, false, false, true, false, false, true, false, false, false, true, true, true, false, false, false, false, false, false, true, true, true, true, false, false, false, true, false, false, false, true, true, false, false, false, true, false, true, false, false, false, false, true, true, false, false, false, false, false, true, true, false, false, true, true, true, false, true, false, false, false, false, false, false, false, false, false, false, true, false, true, true, false, false, false, true, false, false, false, false, false, false, true, true, false, false, false, true, false, false, false, false, false, false, false, false, true, true, false, false, false, false, false, false, false, false, true, true, false, false, false, false, false, false, false, true, false, false, true, false, false, false, false, true, false, true, false, false, false, true, false, false, false, true, false, false, true, true, false, false, false, false, false, false, true, false, true, false, false, false, false, false, false, false, false, true, false, false, true, false, false, false, true, false, false, true, true, false, false, false, false, false, true, false, false, false, false, true, false, true, false, false, false, false, false, false, false, false, false, false, true, false, true, false, false, false, true, false, true, false, false, true, false, false, true, false, true, false, false, false, true, false, false, false, false, false, true, false, false, false, false, false, true, true, true, true, false, true, true, false, false, false, false, false, true, false, false, false, false, false, false, true, true, false, false, false, false, false, false, false, false, true, false, true, true, false, false, true, false, false, true, false, true, true, false, true, false, false, false, true, false, false, true, true, false, false, false, false, true, true, false, false, false, false, false, false, false, true, false, true, false, false, false, false, true, false, false, false, false, true, false, true, true, false, false, false, false, true, false, true, false, false, true, false, false, false, true, false, false, false, true, false, true, false, false, false, false, false, true, false, false, false, false, true, false, true, false, false, false, false, false, false, false, false, false, false, false, true, true, false, false, true, false, false, false, false, false, false, false, false, true, true, true, true, true, false, true, false, false, false, true, true, false, false, false, false, false, false, false, true, false, false, false, false, false, false, true, false, false, true, true, false, false, true, false, false, false, false, false, false, false, true, false, true, false, false, false, false, false, false, false, true, false, false, true, true, false, false, true, false, false, true, false, true, false, true, true, false, true, false, false, false, false, false, true, false, true, false, false, false, false, false, true, false, false, false, false, true, true, false, false, false, false, false, false, false, false, false, true, false, false, false, false, false, false, false, true, false, false, false, false, false, false, true, false, true, false, true, false, true, false, false, false, false, false, false, false, true, false, false, true, false, false, false, true, false, false, false, false, false, false, false, false, true, true, true, false, true, false, false, false, false, false, false, false, false, false, false, false, true, false, false, false, false, true, true, false, false, false, true, false, false, false, false, true, false, true, true, true, true, false, false, false, false
]);
